\ENCODING=ISO-8859-1
\Problem name: IloCplex

Minimize
 obj: x1 + 14.5986669711304 x2 + 1.6751424074173
Subject To
 c1: x1 + 11.7259969711304 x2 <= 99998.3248575926
 c2: x1 + 2.87267 x2 >= 45.0812963347905
 c3: x1 + 14.5986669711304 x2 <= 99998.3248575926
Bounds
 44.8897850014572 <= x1 <= 100000
 0.0666666666666667 <= x2 <= 0.333333333333333
End
